; benchmark generated from python API
(set-info :status unknown)
(define-funs-rec ( ( T2_07 ((x!1 Int)) Int)
                   ( p2_07 ((x!1 Int)) Int)
                   ( ilog2_2_07 ((x!1 Int)) Int)
                   ( xor_2_07 ((x!1 Int) (x!2 Int)) Int)
                   ( T2_04 ((x!1 Int)) Int)
                   ( t2_04 ((x!1 Int)) String)
                   ( sub2_04 ((x!1 String) (x!2 String)) String)
                   ( ilog2_2_04 ((x!1 Int)) Int))
                 ( (let ((a!1 (ite (= (mod ((_ p2_07 0) x!1) 2) 0)
                                   (- 1 ((_ T2_07 0) (- x!1 1)))
                                   ((_ T2_07 0) (- x!1 1)))))
                     (ite (= x!1 0) 0 a!1))
                   (+ ((_ ilog2_2_07 0) ((_ xor_2_07 0) x!1 (- x!1 1))) 1)
                   (ite (<= x!1 1) 0 (+ 1 ((_ ilog2_2_07 0) (div x!1 2))))
                   (let ((a!1 (+ (mod (+ (mod x!1 2) (mod x!2 2)) 2)
                                 (* 2 ((_ xor_2_07 0) (div x!1 2) (div x!2 2))))))
                     (ite (= x!1 0) x!2 (ite (= x!2 0) x!1 a!1)))
                   (let ((a!1 (str.substr ((_ t2_04 0)
                                            (+ ((_ ilog2_2_04 0) x!1) 1))
                                          x!1
                                          1)))
                     (ite (= a!1 "0") 0 1))
                   (ite (= x!1 0)
                        "0"
                        ((_ sub2_04 0) "" ((_ t2_04 0) (- x!1 1))))
                   (let ((a!1 (str.++ x!1
                                      (ite (= (str.substr x!2 0 1) "0")
                                           "01"
                                           "10")
                                      (str.substr x!2 1 (- (str.len x!2) 1)))))
                     (ite (= (str.len x!2) 0) x!1 a!1))
                   (ite (<= x!1 1) 0 (+ 1 ((_ ilog2_2_04 0) (div x!1 2))))))
(assert
 (forall ((n Int) )(let ((?x406 ((_ T2_07 0) n)))
(let ((?x370 ((_ T2_04 0) n)))
(let (($x379 (= ?x370 ?x406)))
(let (($x407 (>= n 0)))
(=> $x407 $x379))))))
)
(check-sat)
